* #variable= 1118 #constraint= 1069 
-1 x27 +1 x1 >= 0 ;
-1 x27 +1 x14 >= 0 ;
+1 x27 -1 x1 -1 x14 >= -1 ;
+1 x14 = 0 ;
-1 x28 +1 x2 >= 0 ;
-1 x28 +1 x15 >= 0 ;
+1 x28 -1 x2 -1 x15 >= -1 ;
+1 x15 = 1 ;
-1 x29 +1 x3 >= 0 ;
-1 x29 +1 x16 >= 0 ;
+1 x29 -1 x3 -1 x16 >= -1 ;
+1 x16 = 0 ;
-1 x30 +1 x4 >= 0 ;
-1 x30 +1 x17 >= 0 ;
+1 x30 -1 x4 -1 x17 >= -1 ;
+1 x17 = 1 ;
-1 x31 +1 x5 >= 0 ;
-1 x31 +1 x18 >= 0 ;
+1 x31 -1 x5 -1 x18 >= -1 ;
+1 x18 = 0 ;
-1 x32 +1 x6 >= 0 ;
-1 x32 +1 x19 >= 0 ;
+1 x32 -1 x6 -1 x19 >= -1 ;
+1 x19 = 1 ;
-1 x33 +1 x7 >= 0 ;
-1 x33 +1 x20 >= 0 ;
+1 x33 -1 x7 -1 x20 >= -1 ;
+1 x20 = 0 ;
-1 x34 +1 x8 >= 0 ;
-1 x34 +1 x21 >= 0 ;
+1 x34 -1 x8 -1 x21 >= -1 ;
+1 x21 = 1 ;
-1 x35 +1 x9 >= 0 ;
-1 x35 +1 x22 >= 0 ;
+1 x35 -1 x9 -1 x22 >= -1 ;
+1 x22 = 0 ;
-1 x36 +1 x10 >= 0 ;
-1 x36 +1 x23 >= 0 ;
+1 x36 -1 x10 -1 x23 >= -1 ;
+1 x23 = 1 ;
-1 x37 +1 x11 >= 0 ;
-1 x37 +1 x24 >= 0 ;
+1 x37 -1 x11 -1 x24 >= -1 ;
+1 x24 = 0 ;
-1 x38 +1 x12 >= 0 ;
-1 x38 +1 x25 >= 0 ;
+1 x38 -1 x12 -1 x25 >= -1 ;
+1 x25 = 1 ;
-1 x39 +1 x13 >= 0 ;
-1 x39 +1 x26 >= 0 ;
+1 x39 -1 x13 -1 x26 >= -1 ;
+1 x26 = 0 ;
-1 x53 +1 x14 >= 0 ;
-1 x53 +1 x40 >= 0 ;
+1 x53 -1 x14 -1 x40 >= -1 ;
+1 x53 +2 x66 +4 x79 +8 x92 +16 x105 +32 x118 +64 x131 +128 x144 +256 x157 +512 x170 +1024 x183 +2048 x196 +4096 x209 +2 x54 +4 x67 +8 x80 +16 x93 +32 x106 +64 x119 +128 x132 +256 x145 +512 x158 +1024 x171 +2048 x184 +4096 x197 +8192 x210 +4 x55 +8 x68 +16 x81 +32 x94 +64 x107 +128 x120 +256 x133 +512 x146 +1024 x159 +2048 x172 +4096 x185 +8192 x198 +16384 x211 +8 x56 +16 x69 +32 x82 +64 x95 +128 x108 +256 x121 +512 x134 +1024 x147 +2048 x160 +4096 x173 +8192 x186 +16384 x199 +32768 x212 +16 x57 +32 x70 +64 x83 +128 x96 +256 x109 +512 x122 +1024 x135 +2048 x148 +4096 x161 +8192 x174 +16384 x187 +32768 x200 +65536 x213 +32 x58 +64 x71 +128 x84 +256 x97 +512 x110 +1024 x123 +2048 x136 +4096 x149 +8192 x162 +16384 x175 +32768 x188 +65536 x201 +131072 x214 +64 x59 +128 x72 +256 x85 +512 x98 +1024 x111 +2048 x124 +4096 x137 +8192 x150 +16384 x163 +32768 x176 +65536 x189 +131072 x202 +262144 x215 +128 x60 +256 x73 +512 x86 +1024 x99 +2048 x112 +4096 x125 +8192 x138 +16384 x151 +32768 x164 +65536 x177 +131072 x190 +262144 x203 +524288 x216 +256 x61 +512 x74 +1024 x87 +2048 x100 +4096 x113 +8192 x126 +16384 x139 +32768 x152 +65536 x165 +131072 x178 +262144 x191 +524288 x204 +1048576 x217 +512 x62 +1024 x75 +2048 x88 +4096 x101 +8192 x114 +16384 x127 +32768 x140 +65536 x153 +131072 x166 +262144 x179 +524288 x192 +1048576 x205 +2097152 x218 +1024 x63 +2048 x76 +4096 x89 +8192 x102 +16384 x115 +32768 x128 +65536 x141 +131072 x154 +262144 x167 +524288 x180 +1048576 x193 +2097152 x206 +4194304 x219 +2048 x64 +4096 x77 +8192 x90 +16384 x103 +32768 x116 +65536 x129 +131072 x142 +262144 x155 +524288 x168 +1048576 x181 +2097152 x194 +4194304 x207 +8388608 x220 +4096 x65 +8192 x78 +16384 x91 +32768 x104 +65536 x117 +131072 x130 +262144 x143 +524288 x156 +1048576 x169 +2097152 x182 +4194304 x195 +8388608 x208 +16777216 x221 -1 x1067 -2 x1068 -4 x1069 -8 x1070 -16 x1071 -32 x1072 -64 x1073 -128 x1074 -256 x1075 -512 x1076 -1024 x1077 -2048 x1078 -4096 x1079 -8192 x1080 -16384 x1081 -32768 x1082 -65536 x1083 -131072 x1084 -262144 x1085 -524288 x1086 -1048576 x1087 -2097152 x1088 -4194304 x1089 -8388608 x1090 -16777216 x1091 -33554432 x1092 = 0; 
-1 x560 +1 x27 >= 0 ;
-1 x560 +1 x40 >= 0 ;
+1 x560 -1 x27 -1 x40 >= -1 ;
+1 x560 +2 x573 +4 x586 +8 x599 +16 x612 +32 x625 +64 x638 +128 x651 +256 x664 +512 x677 +1024 x690 +2048 x703 +4096 x716 +2 x561 +4 x574 +8 x587 +16 x600 +32 x613 +64 x626 +128 x639 +256 x652 +512 x665 +1024 x678 +2048 x691 +4096 x704 +8192 x717 +4 x562 +8 x575 +16 x588 +32 x601 +64 x614 +128 x627 +256 x640 +512 x653 +1024 x666 +2048 x679 +4096 x692 +8192 x705 +16384 x718 +8 x563 +16 x576 +32 x589 +64 x602 +128 x615 +256 x628 +512 x641 +1024 x654 +2048 x667 +4096 x680 +8192 x693 +16384 x706 +32768 x719 +16 x564 +32 x577 +64 x590 +128 x603 +256 x616 +512 x629 +1024 x642 +2048 x655 +4096 x668 +8192 x681 +16384 x694 +32768 x707 +65536 x720 +32 x565 +64 x578 +128 x591 +256 x604 +512 x617 +1024 x630 +2048 x643 +4096 x656 +8192 x669 +16384 x682 +32768 x695 +65536 x708 +131072 x721 +64 x566 +128 x579 +256 x592 +512 x605 +1024 x618 +2048 x631 +4096 x644 +8192 x657 +16384 x670 +32768 x683 +65536 x696 +131072 x709 +262144 x722 +128 x567 +256 x580 +512 x593 +1024 x606 +2048 x619 +4096 x632 +8192 x645 +16384 x658 +32768 x671 +65536 x684 +131072 x697 +262144 x710 +524288 x723 +256 x568 +512 x581 +1024 x594 +2048 x607 +4096 x620 +8192 x633 +16384 x646 +32768 x659 +65536 x672 +131072 x685 +262144 x698 +524288 x711 +1048576 x724 +512 x569 +1024 x582 +2048 x595 +4096 x608 +8192 x621 +16384 x634 +32768 x647 +65536 x660 +131072 x673 +262144 x686 +524288 x699 +1048576 x712 +2097152 x725 +1024 x570 +2048 x583 +4096 x596 +8192 x609 +16384 x622 +32768 x635 +65536 x648 +131072 x661 +262144 x674 +524288 x687 +1048576 x700 +2097152 x713 +4194304 x726 +2048 x571 +4096 x584 +8192 x597 +16384 x610 +32768 x623 +65536 x636 +131072 x649 +262144 x662 +524288 x675 +1048576 x688 +2097152 x701 +4194304 x714 +8388608 x727 +4096 x572 +8192 x585 +16384 x598 +32768 x611 +65536 x624 +131072 x637 +262144 x650 +524288 x663 +1048576 x676 +2097152 x689 +4194304 x702 +8388608 x715 +16777216 x728 -1 x1093 -2 x1094 -4 x1095 -8 x1096 -16 x1097 -32 x1098 -64 x1099 -128 x1100 -256 x1101 -512 x1102 -1024 x1103 -2048 x1104 -4096 x1105 -8192 x1106 -16384 x1107 -32768 x1108 -65536 x1109 -131072 x1110 -262144 x1111 -524288 x1112 -1048576 x1113 -2097152 x1114 -4194304 x1115 -8388608 x1116 -16777216 x1117 -33554432 x1118 = 0; 
+1 x1093 -1 x1067 +2 x1094 -2 x1068 +4 x1095 -4 x1069 +8 x1096 -8 x1070 +16 x1097 -16 x1071 +32 x1098 -32 x1072 +64 x1099 -64 x1073 +128 x1100 -128 x1074 +256 x1101 -256 x1075 +512 x1102 -512 x1076 +1024 x1103 -1024 x1077 +2048 x1104 -2048 x1078 +4096 x1105 -4096 x1079 +8192 x1106 -8192 x1080 +16384 x1107 -16384 x1081 +32768 x1108 -32768 x1082 +65536 x1109 -65536 x1083 +131072 x1110 -131072 x1084 +262144 x1111 -262144 x1085 +524288 x1112 -524288 x1086 +1048576 x1113 -1048576 x1087 +2097152 x1114 -2097152 x1088 +4194304 x1115 -4194304 x1089 +8388608 x1116 -8388608 x1090 +16777216 x1117 -16777216 x1091 +33554432 x1118 -33554432 x1092 >= 1 ;
-1 x66 +1 x15 >= 0 ;
-1 x66 +1 x40 >= 0 ;
+1 x66 -1 x15 -1 x40 >= -1 ;
-1 x54 +1 x14 >= 0 ;
-1 x54 +1 x41 >= 0 ;
+1 x54 -1 x14 -1 x41 >= -1 ;
-1 x573 +1 x28 >= 0 ;
-1 x573 +1 x40 >= 0 ;
+1 x573 -1 x28 -1 x40 >= -1 ;
-1 x561 +1 x27 >= 0 ;
-1 x561 +1 x41 >= 0 ;
+1 x561 -1 x27 -1 x41 >= -1 ;
-1 x79 +1 x16 >= 0 ;
-1 x79 +1 x40 >= 0 ;
+1 x79 -1 x16 -1 x40 >= -1 ;
-1 x67 +1 x15 >= 0 ;
-1 x67 +1 x41 >= 0 ;
+1 x67 -1 x15 -1 x41 >= -1 ;
-1 x55 +1 x14 >= 0 ;
-1 x55 +1 x42 >= 0 ;
+1 x55 -1 x14 -1 x42 >= -1 ;
-1 x586 +1 x29 >= 0 ;
-1 x586 +1 x40 >= 0 ;
+1 x586 -1 x29 -1 x40 >= -1 ;
-1 x574 +1 x28 >= 0 ;
-1 x574 +1 x41 >= 0 ;
+1 x574 -1 x28 -1 x41 >= -1 ;
-1 x562 +1 x27 >= 0 ;
-1 x562 +1 x42 >= 0 ;
+1 x562 -1 x27 -1 x42 >= -1 ;
-1 x92 +1 x17 >= 0 ;
-1 x92 +1 x40 >= 0 ;
+1 x92 -1 x17 -1 x40 >= -1 ;
-1 x80 +1 x16 >= 0 ;
-1 x80 +1 x41 >= 0 ;
+1 x80 -1 x16 -1 x41 >= -1 ;
-1 x68 +1 x15 >= 0 ;
-1 x68 +1 x42 >= 0 ;
+1 x68 -1 x15 -1 x42 >= -1 ;
-1 x56 +1 x14 >= 0 ;
-1 x56 +1 x43 >= 0 ;
+1 x56 -1 x14 -1 x43 >= -1 ;
-1 x599 +1 x30 >= 0 ;
-1 x599 +1 x40 >= 0 ;
+1 x599 -1 x30 -1 x40 >= -1 ;
-1 x587 +1 x29 >= 0 ;
-1 x587 +1 x41 >= 0 ;
+1 x587 -1 x29 -1 x41 >= -1 ;
-1 x575 +1 x28 >= 0 ;
-1 x575 +1 x42 >= 0 ;
+1 x575 -1 x28 -1 x42 >= -1 ;
-1 x563 +1 x27 >= 0 ;
-1 x563 +1 x43 >= 0 ;
+1 x563 -1 x27 -1 x43 >= -1 ;
-1 x105 +1 x18 >= 0 ;
-1 x105 +1 x40 >= 0 ;
+1 x105 -1 x18 -1 x40 >= -1 ;
-1 x93 +1 x17 >= 0 ;
-1 x93 +1 x41 >= 0 ;
+1 x93 -1 x17 -1 x41 >= -1 ;
-1 x81 +1 x16 >= 0 ;
-1 x81 +1 x42 >= 0 ;
+1 x81 -1 x16 -1 x42 >= -1 ;
-1 x69 +1 x15 >= 0 ;
-1 x69 +1 x43 >= 0 ;
+1 x69 -1 x15 -1 x43 >= -1 ;
-1 x57 +1 x14 >= 0 ;
-1 x57 +1 x44 >= 0 ;
+1 x57 -1 x14 -1 x44 >= -1 ;
-1 x612 +1 x31 >= 0 ;
-1 x612 +1 x40 >= 0 ;
+1 x612 -1 x31 -1 x40 >= -1 ;
-1 x600 +1 x30 >= 0 ;
-1 x600 +1 x41 >= 0 ;
+1 x600 -1 x30 -1 x41 >= -1 ;
-1 x588 +1 x29 >= 0 ;
-1 x588 +1 x42 >= 0 ;
+1 x588 -1 x29 -1 x42 >= -1 ;
-1 x576 +1 x28 >= 0 ;
-1 x576 +1 x43 >= 0 ;
+1 x576 -1 x28 -1 x43 >= -1 ;
-1 x564 +1 x27 >= 0 ;
-1 x564 +1 x44 >= 0 ;
+1 x564 -1 x27 -1 x44 >= -1 ;
-1 x118 +1 x19 >= 0 ;
-1 x118 +1 x40 >= 0 ;
+1 x118 -1 x19 -1 x40 >= -1 ;
-1 x106 +1 x18 >= 0 ;
-1 x106 +1 x41 >= 0 ;
+1 x106 -1 x18 -1 x41 >= -1 ;
-1 x94 +1 x17 >= 0 ;
-1 x94 +1 x42 >= 0 ;
+1 x94 -1 x17 -1 x42 >= -1 ;
-1 x82 +1 x16 >= 0 ;
-1 x82 +1 x43 >= 0 ;
+1 x82 -1 x16 -1 x43 >= -1 ;
-1 x70 +1 x15 >= 0 ;
-1 x70 +1 x44 >= 0 ;
+1 x70 -1 x15 -1 x44 >= -1 ;
-1 x58 +1 x14 >= 0 ;
-1 x58 +1 x45 >= 0 ;
+1 x58 -1 x14 -1 x45 >= -1 ;
-1 x625 +1 x32 >= 0 ;
-1 x625 +1 x40 >= 0 ;
+1 x625 -1 x32 -1 x40 >= -1 ;
-1 x613 +1 x31 >= 0 ;
-1 x613 +1 x41 >= 0 ;
+1 x613 -1 x31 -1 x41 >= -1 ;
-1 x601 +1 x30 >= 0 ;
-1 x601 +1 x42 >= 0 ;
+1 x601 -1 x30 -1 x42 >= -1 ;
-1 x589 +1 x29 >= 0 ;
-1 x589 +1 x43 >= 0 ;
+1 x589 -1 x29 -1 x43 >= -1 ;
-1 x577 +1 x28 >= 0 ;
-1 x577 +1 x44 >= 0 ;
+1 x577 -1 x28 -1 x44 >= -1 ;
-1 x565 +1 x27 >= 0 ;
-1 x565 +1 x45 >= 0 ;
+1 x565 -1 x27 -1 x45 >= -1 ;
-1 x131 +1 x20 >= 0 ;
-1 x131 +1 x40 >= 0 ;
+1 x131 -1 x20 -1 x40 >= -1 ;
-1 x119 +1 x19 >= 0 ;
-1 x119 +1 x41 >= 0 ;
+1 x119 -1 x19 -1 x41 >= -1 ;
-1 x107 +1 x18 >= 0 ;
-1 x107 +1 x42 >= 0 ;
+1 x107 -1 x18 -1 x42 >= -1 ;
-1 x95 +1 x17 >= 0 ;
-1 x95 +1 x43 >= 0 ;
+1 x95 -1 x17 -1 x43 >= -1 ;
-1 x83 +1 x16 >= 0 ;
-1 x83 +1 x44 >= 0 ;
+1 x83 -1 x16 -1 x44 >= -1 ;
-1 x71 +1 x15 >= 0 ;
-1 x71 +1 x45 >= 0 ;
+1 x71 -1 x15 -1 x45 >= -1 ;
-1 x59 +1 x14 >= 0 ;
-1 x59 +1 x46 >= 0 ;
+1 x59 -1 x14 -1 x46 >= -1 ;
-1 x638 +1 x33 >= 0 ;
-1 x638 +1 x40 >= 0 ;
+1 x638 -1 x33 -1 x40 >= -1 ;
-1 x626 +1 x32 >= 0 ;
-1 x626 +1 x41 >= 0 ;
+1 x626 -1 x32 -1 x41 >= -1 ;
-1 x614 +1 x31 >= 0 ;
-1 x614 +1 x42 >= 0 ;
+1 x614 -1 x31 -1 x42 >= -1 ;
-1 x602 +1 x30 >= 0 ;
-1 x602 +1 x43 >= 0 ;
+1 x602 -1 x30 -1 x43 >= -1 ;
-1 x590 +1 x29 >= 0 ;
-1 x590 +1 x44 >= 0 ;
+1 x590 -1 x29 -1 x44 >= -1 ;
-1 x578 +1 x28 >= 0 ;
-1 x578 +1 x45 >= 0 ;
+1 x578 -1 x28 -1 x45 >= -1 ;
-1 x566 +1 x27 >= 0 ;
-1 x566 +1 x46 >= 0 ;
+1 x566 -1 x27 -1 x46 >= -1 ;
-1 x144 +1 x21 >= 0 ;
-1 x144 +1 x40 >= 0 ;
+1 x144 -1 x21 -1 x40 >= -1 ;
-1 x132 +1 x20 >= 0 ;
-1 x132 +1 x41 >= 0 ;
+1 x132 -1 x20 -1 x41 >= -1 ;
-1 x120 +1 x19 >= 0 ;
-1 x120 +1 x42 >= 0 ;
+1 x120 -1 x19 -1 x42 >= -1 ;
-1 x108 +1 x18 >= 0 ;
-1 x108 +1 x43 >= 0 ;
+1 x108 -1 x18 -1 x43 >= -1 ;
-1 x96 +1 x17 >= 0 ;
-1 x96 +1 x44 >= 0 ;
+1 x96 -1 x17 -1 x44 >= -1 ;
-1 x84 +1 x16 >= 0 ;
-1 x84 +1 x45 >= 0 ;
+1 x84 -1 x16 -1 x45 >= -1 ;
-1 x72 +1 x15 >= 0 ;
-1 x72 +1 x46 >= 0 ;
+1 x72 -1 x15 -1 x46 >= -1 ;
-1 x60 +1 x14 >= 0 ;
-1 x60 +1 x47 >= 0 ;
+1 x60 -1 x14 -1 x47 >= -1 ;
-1 x651 +1 x34 >= 0 ;
-1 x651 +1 x40 >= 0 ;
+1 x651 -1 x34 -1 x40 >= -1 ;
-1 x639 +1 x33 >= 0 ;
-1 x639 +1 x41 >= 0 ;
+1 x639 -1 x33 -1 x41 >= -1 ;
-1 x627 +1 x32 >= 0 ;
-1 x627 +1 x42 >= 0 ;
+1 x627 -1 x32 -1 x42 >= -1 ;
-1 x615 +1 x31 >= 0 ;
-1 x615 +1 x43 >= 0 ;
+1 x615 -1 x31 -1 x43 >= -1 ;
-1 x603 +1 x30 >= 0 ;
-1 x603 +1 x44 >= 0 ;
+1 x603 -1 x30 -1 x44 >= -1 ;
-1 x591 +1 x29 >= 0 ;
-1 x591 +1 x45 >= 0 ;
+1 x591 -1 x29 -1 x45 >= -1 ;
-1 x579 +1 x28 >= 0 ;
-1 x579 +1 x46 >= 0 ;
+1 x579 -1 x28 -1 x46 >= -1 ;
-1 x567 +1 x27 >= 0 ;
-1 x567 +1 x47 >= 0 ;
+1 x567 -1 x27 -1 x47 >= -1 ;
-1 x157 +1 x22 >= 0 ;
-1 x157 +1 x40 >= 0 ;
+1 x157 -1 x22 -1 x40 >= -1 ;
-1 x145 +1 x21 >= 0 ;
-1 x145 +1 x41 >= 0 ;
+1 x145 -1 x21 -1 x41 >= -1 ;
-1 x133 +1 x20 >= 0 ;
-1 x133 +1 x42 >= 0 ;
+1 x133 -1 x20 -1 x42 >= -1 ;
-1 x121 +1 x19 >= 0 ;
-1 x121 +1 x43 >= 0 ;
+1 x121 -1 x19 -1 x43 >= -1 ;
-1 x109 +1 x18 >= 0 ;
-1 x109 +1 x44 >= 0 ;
+1 x109 -1 x18 -1 x44 >= -1 ;
-1 x97 +1 x17 >= 0 ;
-1 x97 +1 x45 >= 0 ;
+1 x97 -1 x17 -1 x45 >= -1 ;
-1 x85 +1 x16 >= 0 ;
-1 x85 +1 x46 >= 0 ;
+1 x85 -1 x16 -1 x46 >= -1 ;
-1 x73 +1 x15 >= 0 ;
-1 x73 +1 x47 >= 0 ;
+1 x73 -1 x15 -1 x47 >= -1 ;
-1 x61 +1 x14 >= 0 ;
-1 x61 +1 x48 >= 0 ;
+1 x61 -1 x14 -1 x48 >= -1 ;
-1 x664 +1 x35 >= 0 ;
-1 x664 +1 x40 >= 0 ;
+1 x664 -1 x35 -1 x40 >= -1 ;
-1 x652 +1 x34 >= 0 ;
-1 x652 +1 x41 >= 0 ;
+1 x652 -1 x34 -1 x41 >= -1 ;
-1 x640 +1 x33 >= 0 ;
-1 x640 +1 x42 >= 0 ;
+1 x640 -1 x33 -1 x42 >= -1 ;
-1 x628 +1 x32 >= 0 ;
-1 x628 +1 x43 >= 0 ;
+1 x628 -1 x32 -1 x43 >= -1 ;
-1 x616 +1 x31 >= 0 ;
-1 x616 +1 x44 >= 0 ;
+1 x616 -1 x31 -1 x44 >= -1 ;
-1 x604 +1 x30 >= 0 ;
-1 x604 +1 x45 >= 0 ;
+1 x604 -1 x30 -1 x45 >= -1 ;
-1 x592 +1 x29 >= 0 ;
-1 x592 +1 x46 >= 0 ;
+1 x592 -1 x29 -1 x46 >= -1 ;
-1 x580 +1 x28 >= 0 ;
-1 x580 +1 x47 >= 0 ;
+1 x580 -1 x28 -1 x47 >= -1 ;
-1 x568 +1 x27 >= 0 ;
-1 x568 +1 x48 >= 0 ;
+1 x568 -1 x27 -1 x48 >= -1 ;
-1 x170 +1 x23 >= 0 ;
-1 x170 +1 x40 >= 0 ;
+1 x170 -1 x23 -1 x40 >= -1 ;
-1 x158 +1 x22 >= 0 ;
-1 x158 +1 x41 >= 0 ;
+1 x158 -1 x22 -1 x41 >= -1 ;
-1 x146 +1 x21 >= 0 ;
-1 x146 +1 x42 >= 0 ;
+1 x146 -1 x21 -1 x42 >= -1 ;
-1 x134 +1 x20 >= 0 ;
-1 x134 +1 x43 >= 0 ;
+1 x134 -1 x20 -1 x43 >= -1 ;
-1 x122 +1 x19 >= 0 ;
-1 x122 +1 x44 >= 0 ;
+1 x122 -1 x19 -1 x44 >= -1 ;
-1 x110 +1 x18 >= 0 ;
-1 x110 +1 x45 >= 0 ;
+1 x110 -1 x18 -1 x45 >= -1 ;
-1 x98 +1 x17 >= 0 ;
-1 x98 +1 x46 >= 0 ;
+1 x98 -1 x17 -1 x46 >= -1 ;
-1 x86 +1 x16 >= 0 ;
-1 x86 +1 x47 >= 0 ;
+1 x86 -1 x16 -1 x47 >= -1 ;
-1 x74 +1 x15 >= 0 ;
-1 x74 +1 x48 >= 0 ;
+1 x74 -1 x15 -1 x48 >= -1 ;
-1 x62 +1 x14 >= 0 ;
-1 x62 +1 x49 >= 0 ;
+1 x62 -1 x14 -1 x49 >= -1 ;
-1 x677 +1 x36 >= 0 ;
-1 x677 +1 x40 >= 0 ;
+1 x677 -1 x36 -1 x40 >= -1 ;
-1 x665 +1 x35 >= 0 ;
-1 x665 +1 x41 >= 0 ;
+1 x665 -1 x35 -1 x41 >= -1 ;
-1 x653 +1 x34 >= 0 ;
-1 x653 +1 x42 >= 0 ;
+1 x653 -1 x34 -1 x42 >= -1 ;
-1 x641 +1 x33 >= 0 ;
-1 x641 +1 x43 >= 0 ;
+1 x641 -1 x33 -1 x43 >= -1 ;
-1 x629 +1 x32 >= 0 ;
-1 x629 +1 x44 >= 0 ;
+1 x629 -1 x32 -1 x44 >= -1 ;
-1 x617 +1 x31 >= 0 ;
-1 x617 +1 x45 >= 0 ;
+1 x617 -1 x31 -1 x45 >= -1 ;
-1 x605 +1 x30 >= 0 ;
-1 x605 +1 x46 >= 0 ;
+1 x605 -1 x30 -1 x46 >= -1 ;
-1 x593 +1 x29 >= 0 ;
-1 x593 +1 x47 >= 0 ;
+1 x593 -1 x29 -1 x47 >= -1 ;
-1 x581 +1 x28 >= 0 ;
-1 x581 +1 x48 >= 0 ;
+1 x581 -1 x28 -1 x48 >= -1 ;
-1 x569 +1 x27 >= 0 ;
-1 x569 +1 x49 >= 0 ;
+1 x569 -1 x27 -1 x49 >= -1 ;
-1 x183 +1 x24 >= 0 ;
-1 x183 +1 x40 >= 0 ;
+1 x183 -1 x24 -1 x40 >= -1 ;
-1 x171 +1 x23 >= 0 ;
-1 x171 +1 x41 >= 0 ;
+1 x171 -1 x23 -1 x41 >= -1 ;
-1 x159 +1 x22 >= 0 ;
-1 x159 +1 x42 >= 0 ;
+1 x159 -1 x22 -1 x42 >= -1 ;
-1 x147 +1 x21 >= 0 ;
-1 x147 +1 x43 >= 0 ;
+1 x147 -1 x21 -1 x43 >= -1 ;
-1 x135 +1 x20 >= 0 ;
-1 x135 +1 x44 >= 0 ;
+1 x135 -1 x20 -1 x44 >= -1 ;
-1 x123 +1 x19 >= 0 ;
-1 x123 +1 x45 >= 0 ;
+1 x123 -1 x19 -1 x45 >= -1 ;
-1 x111 +1 x18 >= 0 ;
-1 x111 +1 x46 >= 0 ;
+1 x111 -1 x18 -1 x46 >= -1 ;
-1 x99 +1 x17 >= 0 ;
-1 x99 +1 x47 >= 0 ;
+1 x99 -1 x17 -1 x47 >= -1 ;
-1 x87 +1 x16 >= 0 ;
-1 x87 +1 x48 >= 0 ;
+1 x87 -1 x16 -1 x48 >= -1 ;
-1 x75 +1 x15 >= 0 ;
-1 x75 +1 x49 >= 0 ;
+1 x75 -1 x15 -1 x49 >= -1 ;
-1 x63 +1 x14 >= 0 ;
-1 x63 +1 x50 >= 0 ;
+1 x63 -1 x14 -1 x50 >= -1 ;
-1 x690 +1 x37 >= 0 ;
-1 x690 +1 x40 >= 0 ;
+1 x690 -1 x37 -1 x40 >= -1 ;
-1 x678 +1 x36 >= 0 ;
-1 x678 +1 x41 >= 0 ;
+1 x678 -1 x36 -1 x41 >= -1 ;
-1 x666 +1 x35 >= 0 ;
-1 x666 +1 x42 >= 0 ;
+1 x666 -1 x35 -1 x42 >= -1 ;
-1 x654 +1 x34 >= 0 ;
-1 x654 +1 x43 >= 0 ;
+1 x654 -1 x34 -1 x43 >= -1 ;
-1 x642 +1 x33 >= 0 ;
-1 x642 +1 x44 >= 0 ;
+1 x642 -1 x33 -1 x44 >= -1 ;
-1 x630 +1 x32 >= 0 ;
-1 x630 +1 x45 >= 0 ;
+1 x630 -1 x32 -1 x45 >= -1 ;
-1 x618 +1 x31 >= 0 ;
-1 x618 +1 x46 >= 0 ;
+1 x618 -1 x31 -1 x46 >= -1 ;
-1 x606 +1 x30 >= 0 ;
-1 x606 +1 x47 >= 0 ;
+1 x606 -1 x30 -1 x47 >= -1 ;
-1 x594 +1 x29 >= 0 ;
-1 x594 +1 x48 >= 0 ;
+1 x594 -1 x29 -1 x48 >= -1 ;
-1 x582 +1 x28 >= 0 ;
-1 x582 +1 x49 >= 0 ;
+1 x582 -1 x28 -1 x49 >= -1 ;
-1 x570 +1 x27 >= 0 ;
-1 x570 +1 x50 >= 0 ;
+1 x570 -1 x27 -1 x50 >= -1 ;
-1 x196 +1 x25 >= 0 ;
-1 x196 +1 x40 >= 0 ;
+1 x196 -1 x25 -1 x40 >= -1 ;
-1 x184 +1 x24 >= 0 ;
-1 x184 +1 x41 >= 0 ;
+1 x184 -1 x24 -1 x41 >= -1 ;
-1 x172 +1 x23 >= 0 ;
-1 x172 +1 x42 >= 0 ;
+1 x172 -1 x23 -1 x42 >= -1 ;
-1 x160 +1 x22 >= 0 ;
-1 x160 +1 x43 >= 0 ;
+1 x160 -1 x22 -1 x43 >= -1 ;
-1 x148 +1 x21 >= 0 ;
-1 x148 +1 x44 >= 0 ;
+1 x148 -1 x21 -1 x44 >= -1 ;
-1 x136 +1 x20 >= 0 ;
-1 x136 +1 x45 >= 0 ;
+1 x136 -1 x20 -1 x45 >= -1 ;
-1 x124 +1 x19 >= 0 ;
-1 x124 +1 x46 >= 0 ;
+1 x124 -1 x19 -1 x46 >= -1 ;
-1 x112 +1 x18 >= 0 ;
-1 x112 +1 x47 >= 0 ;
+1 x112 -1 x18 -1 x47 >= -1 ;
-1 x100 +1 x17 >= 0 ;
-1 x100 +1 x48 >= 0 ;
+1 x100 -1 x17 -1 x48 >= -1 ;
-1 x88 +1 x16 >= 0 ;
-1 x88 +1 x49 >= 0 ;
+1 x88 -1 x16 -1 x49 >= -1 ;
-1 x76 +1 x15 >= 0 ;
-1 x76 +1 x50 >= 0 ;
+1 x76 -1 x15 -1 x50 >= -1 ;
-1 x64 +1 x14 >= 0 ;
-1 x64 +1 x51 >= 0 ;
+1 x64 -1 x14 -1 x51 >= -1 ;
-1 x703 +1 x38 >= 0 ;
-1 x703 +1 x40 >= 0 ;
+1 x703 -1 x38 -1 x40 >= -1 ;
-1 x691 +1 x37 >= 0 ;
-1 x691 +1 x41 >= 0 ;
+1 x691 -1 x37 -1 x41 >= -1 ;
-1 x679 +1 x36 >= 0 ;
-1 x679 +1 x42 >= 0 ;
+1 x679 -1 x36 -1 x42 >= -1 ;
-1 x667 +1 x35 >= 0 ;
-1 x667 +1 x43 >= 0 ;
+1 x667 -1 x35 -1 x43 >= -1 ;
-1 x655 +1 x34 >= 0 ;
-1 x655 +1 x44 >= 0 ;
+1 x655 -1 x34 -1 x44 >= -1 ;
-1 x643 +1 x33 >= 0 ;
-1 x643 +1 x45 >= 0 ;
+1 x643 -1 x33 -1 x45 >= -1 ;
-1 x631 +1 x32 >= 0 ;
-1 x631 +1 x46 >= 0 ;
+1 x631 -1 x32 -1 x46 >= -1 ;
-1 x619 +1 x31 >= 0 ;
-1 x619 +1 x47 >= 0 ;
+1 x619 -1 x31 -1 x47 >= -1 ;
-1 x607 +1 x30 >= 0 ;
-1 x607 +1 x48 >= 0 ;
+1 x607 -1 x30 -1 x48 >= -1 ;
-1 x595 +1 x29 >= 0 ;
-1 x595 +1 x49 >= 0 ;
+1 x595 -1 x29 -1 x49 >= -1 ;
-1 x583 +1 x28 >= 0 ;
-1 x583 +1 x50 >= 0 ;
+1 x583 -1 x28 -1 x50 >= -1 ;
-1 x571 +1 x27 >= 0 ;
-1 x571 +1 x51 >= 0 ;
+1 x571 -1 x27 -1 x51 >= -1 ;
-1 x209 +1 x26 >= 0 ;
-1 x209 +1 x40 >= 0 ;
+1 x209 -1 x26 -1 x40 >= -1 ;
-1 x197 +1 x25 >= 0 ;
-1 x197 +1 x41 >= 0 ;
+1 x197 -1 x25 -1 x41 >= -1 ;
-1 x185 +1 x24 >= 0 ;
-1 x185 +1 x42 >= 0 ;
+1 x185 -1 x24 -1 x42 >= -1 ;
-1 x173 +1 x23 >= 0 ;
-1 x173 +1 x43 >= 0 ;
+1 x173 -1 x23 -1 x43 >= -1 ;
-1 x161 +1 x22 >= 0 ;
-1 x161 +1 x44 >= 0 ;
+1 x161 -1 x22 -1 x44 >= -1 ;
-1 x149 +1 x21 >= 0 ;
-1 x149 +1 x45 >= 0 ;
+1 x149 -1 x21 -1 x45 >= -1 ;
-1 x137 +1 x20 >= 0 ;
-1 x137 +1 x46 >= 0 ;
+1 x137 -1 x20 -1 x46 >= -1 ;
-1 x125 +1 x19 >= 0 ;
-1 x125 +1 x47 >= 0 ;
+1 x125 -1 x19 -1 x47 >= -1 ;
-1 x113 +1 x18 >= 0 ;
-1 x113 +1 x48 >= 0 ;
+1 x113 -1 x18 -1 x48 >= -1 ;
-1 x101 +1 x17 >= 0 ;
-1 x101 +1 x49 >= 0 ;
+1 x101 -1 x17 -1 x49 >= -1 ;
-1 x89 +1 x16 >= 0 ;
-1 x89 +1 x50 >= 0 ;
+1 x89 -1 x16 -1 x50 >= -1 ;
-1 x77 +1 x15 >= 0 ;
-1 x77 +1 x51 >= 0 ;
+1 x77 -1 x15 -1 x51 >= -1 ;
-1 x65 +1 x14 >= 0 ;
-1 x65 +1 x52 >= 0 ;
+1 x65 -1 x14 -1 x52 >= -1 ;
-1 x716 +1 x39 >= 0 ;
-1 x716 +1 x40 >= 0 ;
+1 x716 -1 x39 -1 x40 >= -1 ;
-1 x704 +1 x38 >= 0 ;
-1 x704 +1 x41 >= 0 ;
+1 x704 -1 x38 -1 x41 >= -1 ;
-1 x692 +1 x37 >= 0 ;
-1 x692 +1 x42 >= 0 ;
+1 x692 -1 x37 -1 x42 >= -1 ;
-1 x680 +1 x36 >= 0 ;
-1 x680 +1 x43 >= 0 ;
+1 x680 -1 x36 -1 x43 >= -1 ;
-1 x668 +1 x35 >= 0 ;
-1 x668 +1 x44 >= 0 ;
+1 x668 -1 x35 -1 x44 >= -1 ;
-1 x656 +1 x34 >= 0 ;
-1 x656 +1 x45 >= 0 ;
+1 x656 -1 x34 -1 x45 >= -1 ;
-1 x644 +1 x33 >= 0 ;
-1 x644 +1 x46 >= 0 ;
+1 x644 -1 x33 -1 x46 >= -1 ;
-1 x632 +1 x32 >= 0 ;
-1 x632 +1 x47 >= 0 ;
+1 x632 -1 x32 -1 x47 >= -1 ;
-1 x620 +1 x31 >= 0 ;
-1 x620 +1 x48 >= 0 ;
+1 x620 -1 x31 -1 x48 >= -1 ;
-1 x608 +1 x30 >= 0 ;
-1 x608 +1 x49 >= 0 ;
+1 x608 -1 x30 -1 x49 >= -1 ;
-1 x596 +1 x29 >= 0 ;
-1 x596 +1 x50 >= 0 ;
+1 x596 -1 x29 -1 x50 >= -1 ;
-1 x584 +1 x28 >= 0 ;
-1 x584 +1 x51 >= 0 ;
+1 x584 -1 x28 -1 x51 >= -1 ;
-1 x572 +1 x27 >= 0 ;
-1 x572 +1 x52 >= 0 ;
+1 x572 -1 x27 -1 x52 >= -1 ;
-1 x210 +1 x26 >= 0 ;
-1 x210 +1 x41 >= 0 ;
+1 x210 -1 x26 -1 x41 >= -1 ;
-1 x198 +1 x25 >= 0 ;
-1 x198 +1 x42 >= 0 ;
+1 x198 -1 x25 -1 x42 >= -1 ;
-1 x186 +1 x24 >= 0 ;
-1 x186 +1 x43 >= 0 ;
+1 x186 -1 x24 -1 x43 >= -1 ;
-1 x174 +1 x23 >= 0 ;
-1 x174 +1 x44 >= 0 ;
+1 x174 -1 x23 -1 x44 >= -1 ;
-1 x162 +1 x22 >= 0 ;
-1 x162 +1 x45 >= 0 ;
+1 x162 -1 x22 -1 x45 >= -1 ;
-1 x150 +1 x21 >= 0 ;
-1 x150 +1 x46 >= 0 ;
+1 x150 -1 x21 -1 x46 >= -1 ;
-1 x138 +1 x20 >= 0 ;
-1 x138 +1 x47 >= 0 ;
+1 x138 -1 x20 -1 x47 >= -1 ;
-1 x126 +1 x19 >= 0 ;
-1 x126 +1 x48 >= 0 ;
+1 x126 -1 x19 -1 x48 >= -1 ;
-1 x114 +1 x18 >= 0 ;
-1 x114 +1 x49 >= 0 ;
+1 x114 -1 x18 -1 x49 >= -1 ;
-1 x102 +1 x17 >= 0 ;
-1 x102 +1 x50 >= 0 ;
+1 x102 -1 x17 -1 x50 >= -1 ;
-1 x90 +1 x16 >= 0 ;
-1 x90 +1 x51 >= 0 ;
+1 x90 -1 x16 -1 x51 >= -1 ;
-1 x78 +1 x15 >= 0 ;
-1 x78 +1 x52 >= 0 ;
+1 x78 -1 x15 -1 x52 >= -1 ;
-1 x717 +1 x39 >= 0 ;
-1 x717 +1 x41 >= 0 ;
+1 x717 -1 x39 -1 x41 >= -1 ;
-1 x705 +1 x38 >= 0 ;
-1 x705 +1 x42 >= 0 ;
+1 x705 -1 x38 -1 x42 >= -1 ;
-1 x693 +1 x37 >= 0 ;
-1 x693 +1 x43 >= 0 ;
+1 x693 -1 x37 -1 x43 >= -1 ;
-1 x681 +1 x36 >= 0 ;
-1 x681 +1 x44 >= 0 ;
+1 x681 -1 x36 -1 x44 >= -1 ;
-1 x669 +1 x35 >= 0 ;
-1 x669 +1 x45 >= 0 ;
+1 x669 -1 x35 -1 x45 >= -1 ;
-1 x657 +1 x34 >= 0 ;
-1 x657 +1 x46 >= 0 ;
+1 x657 -1 x34 -1 x46 >= -1 ;
-1 x645 +1 x33 >= 0 ;
-1 x645 +1 x47 >= 0 ;
+1 x645 -1 x33 -1 x47 >= -1 ;
-1 x633 +1 x32 >= 0 ;
-1 x633 +1 x48 >= 0 ;
+1 x633 -1 x32 -1 x48 >= -1 ;
-1 x621 +1 x31 >= 0 ;
-1 x621 +1 x49 >= 0 ;
+1 x621 -1 x31 -1 x49 >= -1 ;
-1 x609 +1 x30 >= 0 ;
-1 x609 +1 x50 >= 0 ;
+1 x609 -1 x30 -1 x50 >= -1 ;
-1 x597 +1 x29 >= 0 ;
-1 x597 +1 x51 >= 0 ;
+1 x597 -1 x29 -1 x51 >= -1 ;
-1 x585 +1 x28 >= 0 ;
-1 x585 +1 x52 >= 0 ;
+1 x585 -1 x28 -1 x52 >= -1 ;
-1 x211 +1 x26 >= 0 ;
-1 x211 +1 x42 >= 0 ;
+1 x211 -1 x26 -1 x42 >= -1 ;
-1 x199 +1 x25 >= 0 ;
-1 x199 +1 x43 >= 0 ;
+1 x199 -1 x25 -1 x43 >= -1 ;
-1 x187 +1 x24 >= 0 ;
-1 x187 +1 x44 >= 0 ;
+1 x187 -1 x24 -1 x44 >= -1 ;
-1 x175 +1 x23 >= 0 ;
-1 x175 +1 x45 >= 0 ;
+1 x175 -1 x23 -1 x45 >= -1 ;
-1 x163 +1 x22 >= 0 ;
-1 x163 +1 x46 >= 0 ;
+1 x163 -1 x22 -1 x46 >= -1 ;
-1 x151 +1 x21 >= 0 ;
-1 x151 +1 x47 >= 0 ;
+1 x151 -1 x21 -1 x47 >= -1 ;
-1 x139 +1 x20 >= 0 ;
-1 x139 +1 x48 >= 0 ;
+1 x139 -1 x20 -1 x48 >= -1 ;
-1 x127 +1 x19 >= 0 ;
-1 x127 +1 x49 >= 0 ;
+1 x127 -1 x19 -1 x49 >= -1 ;
-1 x115 +1 x18 >= 0 ;
-1 x115 +1 x50 >= 0 ;
+1 x115 -1 x18 -1 x50 >= -1 ;
-1 x103 +1 x17 >= 0 ;
-1 x103 +1 x51 >= 0 ;
+1 x103 -1 x17 -1 x51 >= -1 ;
-1 x91 +1 x16 >= 0 ;
-1 x91 +1 x52 >= 0 ;
+1 x91 -1 x16 -1 x52 >= -1 ;
-1 x718 +1 x39 >= 0 ;
-1 x718 +1 x42 >= 0 ;
+1 x718 -1 x39 -1 x42 >= -1 ;
-1 x706 +1 x38 >= 0 ;
-1 x706 +1 x43 >= 0 ;
+1 x706 -1 x38 -1 x43 >= -1 ;
-1 x694 +1 x37 >= 0 ;
-1 x694 +1 x44 >= 0 ;
+1 x694 -1 x37 -1 x44 >= -1 ;
-1 x682 +1 x36 >= 0 ;
-1 x682 +1 x45 >= 0 ;
+1 x682 -1 x36 -1 x45 >= -1 ;
-1 x670 +1 x35 >= 0 ;
-1 x670 +1 x46 >= 0 ;
+1 x670 -1 x35 -1 x46 >= -1 ;
-1 x658 +1 x34 >= 0 ;
-1 x658 +1 x47 >= 0 ;
+1 x658 -1 x34 -1 x47 >= -1 ;
-1 x646 +1 x33 >= 0 ;
-1 x646 +1 x48 >= 0 ;
+1 x646 -1 x33 -1 x48 >= -1 ;
-1 x634 +1 x32 >= 0 ;
-1 x634 +1 x49 >= 0 ;
+1 x634 -1 x32 -1 x49 >= -1 ;
-1 x622 +1 x31 >= 0 ;
-1 x622 +1 x50 >= 0 ;
+1 x622 -1 x31 -1 x50 >= -1 ;
-1 x610 +1 x30 >= 0 ;
-1 x610 +1 x51 >= 0 ;
+1 x610 -1 x30 -1 x51 >= -1 ;
-1 x598 +1 x29 >= 0 ;
-1 x598 +1 x52 >= 0 ;
+1 x598 -1 x29 -1 x52 >= -1 ;
-1 x212 +1 x26 >= 0 ;
-1 x212 +1 x43 >= 0 ;
+1 x212 -1 x26 -1 x43 >= -1 ;
-1 x200 +1 x25 >= 0 ;
-1 x200 +1 x44 >= 0 ;
+1 x200 -1 x25 -1 x44 >= -1 ;
-1 x188 +1 x24 >= 0 ;
-1 x188 +1 x45 >= 0 ;
+1 x188 -1 x24 -1 x45 >= -1 ;
-1 x176 +1 x23 >= 0 ;
-1 x176 +1 x46 >= 0 ;
+1 x176 -1 x23 -1 x46 >= -1 ;
-1 x164 +1 x22 >= 0 ;
-1 x164 +1 x47 >= 0 ;
+1 x164 -1 x22 -1 x47 >= -1 ;
-1 x152 +1 x21 >= 0 ;
-1 x152 +1 x48 >= 0 ;
+1 x152 -1 x21 -1 x48 >= -1 ;
-1 x140 +1 x20 >= 0 ;
-1 x140 +1 x49 >= 0 ;
+1 x140 -1 x20 -1 x49 >= -1 ;
-1 x128 +1 x19 >= 0 ;
-1 x128 +1 x50 >= 0 ;
+1 x128 -1 x19 -1 x50 >= -1 ;
-1 x116 +1 x18 >= 0 ;
-1 x116 +1 x51 >= 0 ;
+1 x116 -1 x18 -1 x51 >= -1 ;
-1 x104 +1 x17 >= 0 ;
-1 x104 +1 x52 >= 0 ;
+1 x104 -1 x17 -1 x52 >= -1 ;
-1 x719 +1 x39 >= 0 ;
-1 x719 +1 x43 >= 0 ;
+1 x719 -1 x39 -1 x43 >= -1 ;
-1 x707 +1 x38 >= 0 ;
-1 x707 +1 x44 >= 0 ;
+1 x707 -1 x38 -1 x44 >= -1 ;
-1 x695 +1 x37 >= 0 ;
-1 x695 +1 x45 >= 0 ;
+1 x695 -1 x37 -1 x45 >= -1 ;
-1 x683 +1 x36 >= 0 ;
-1 x683 +1 x46 >= 0 ;
+1 x683 -1 x36 -1 x46 >= -1 ;
-1 x671 +1 x35 >= 0 ;
-1 x671 +1 x47 >= 0 ;
+1 x671 -1 x35 -1 x47 >= -1 ;
-1 x659 +1 x34 >= 0 ;
-1 x659 +1 x48 >= 0 ;
+1 x659 -1 x34 -1 x48 >= -1 ;
-1 x647 +1 x33 >= 0 ;
-1 x647 +1 x49 >= 0 ;
+1 x647 -1 x33 -1 x49 >= -1 ;
-1 x635 +1 x32 >= 0 ;
-1 x635 +1 x50 >= 0 ;
+1 x635 -1 x32 -1 x50 >= -1 ;
-1 x623 +1 x31 >= 0 ;
-1 x623 +1 x51 >= 0 ;
+1 x623 -1 x31 -1 x51 >= -1 ;
-1 x611 +1 x30 >= 0 ;
-1 x611 +1 x52 >= 0 ;
+1 x611 -1 x30 -1 x52 >= -1 ;
-1 x213 +1 x26 >= 0 ;
-1 x213 +1 x44 >= 0 ;
+1 x213 -1 x26 -1 x44 >= -1 ;
-1 x201 +1 x25 >= 0 ;
-1 x201 +1 x45 >= 0 ;
+1 x201 -1 x25 -1 x45 >= -1 ;
-1 x189 +1 x24 >= 0 ;
-1 x189 +1 x46 >= 0 ;
+1 x189 -1 x24 -1 x46 >= -1 ;
-1 x177 +1 x23 >= 0 ;
-1 x177 +1 x47 >= 0 ;
+1 x177 -1 x23 -1 x47 >= -1 ;
-1 x165 +1 x22 >= 0 ;
-1 x165 +1 x48 >= 0 ;
+1 x165 -1 x22 -1 x48 >= -1 ;
-1 x153 +1 x21 >= 0 ;
-1 x153 +1 x49 >= 0 ;
+1 x153 -1 x21 -1 x49 >= -1 ;
-1 x141 +1 x20 >= 0 ;
-1 x141 +1 x50 >= 0 ;
+1 x141 -1 x20 -1 x50 >= -1 ;
-1 x129 +1 x19 >= 0 ;
-1 x129 +1 x51 >= 0 ;
+1 x129 -1 x19 -1 x51 >= -1 ;
-1 x117 +1 x18 >= 0 ;
-1 x117 +1 x52 >= 0 ;
+1 x117 -1 x18 -1 x52 >= -1 ;
-1 x720 +1 x39 >= 0 ;
-1 x720 +1 x44 >= 0 ;
+1 x720 -1 x39 -1 x44 >= -1 ;
-1 x708 +1 x38 >= 0 ;
-1 x708 +1 x45 >= 0 ;
+1 x708 -1 x38 -1 x45 >= -1 ;
-1 x696 +1 x37 >= 0 ;
-1 x696 +1 x46 >= 0 ;
+1 x696 -1 x37 -1 x46 >= -1 ;
-1 x684 +1 x36 >= 0 ;
-1 x684 +1 x47 >= 0 ;
+1 x684 -1 x36 -1 x47 >= -1 ;
-1 x672 +1 x35 >= 0 ;
-1 x672 +1 x48 >= 0 ;
+1 x672 -1 x35 -1 x48 >= -1 ;
-1 x660 +1 x34 >= 0 ;
-1 x660 +1 x49 >= 0 ;
+1 x660 -1 x34 -1 x49 >= -1 ;
-1 x648 +1 x33 >= 0 ;
-1 x648 +1 x50 >= 0 ;
+1 x648 -1 x33 -1 x50 >= -1 ;
-1 x636 +1 x32 >= 0 ;
-1 x636 +1 x51 >= 0 ;
+1 x636 -1 x32 -1 x51 >= -1 ;
-1 x624 +1 x31 >= 0 ;
-1 x624 +1 x52 >= 0 ;
+1 x624 -1 x31 -1 x52 >= -1 ;
-1 x214 +1 x26 >= 0 ;
-1 x214 +1 x45 >= 0 ;
+1 x214 -1 x26 -1 x45 >= -1 ;
-1 x202 +1 x25 >= 0 ;
-1 x202 +1 x46 >= 0 ;
+1 x202 -1 x25 -1 x46 >= -1 ;
-1 x190 +1 x24 >= 0 ;
-1 x190 +1 x47 >= 0 ;
+1 x190 -1 x24 -1 x47 >= -1 ;
-1 x178 +1 x23 >= 0 ;
-1 x178 +1 x48 >= 0 ;
+1 x178 -1 x23 -1 x48 >= -1 ;
-1 x166 +1 x22 >= 0 ;
-1 x166 +1 x49 >= 0 ;
+1 x166 -1 x22 -1 x49 >= -1 ;
-1 x154 +1 x21 >= 0 ;
-1 x154 +1 x50 >= 0 ;
+1 x154 -1 x21 -1 x50 >= -1 ;
-1 x142 +1 x20 >= 0 ;
-1 x142 +1 x51 >= 0 ;
+1 x142 -1 x20 -1 x51 >= -1 ;
-1 x130 +1 x19 >= 0 ;
-1 x130 +1 x52 >= 0 ;
+1 x130 -1 x19 -1 x52 >= -1 ;
-1 x721 +1 x39 >= 0 ;
-1 x721 +1 x45 >= 0 ;
+1 x721 -1 x39 -1 x45 >= -1 ;
-1 x709 +1 x38 >= 0 ;
-1 x709 +1 x46 >= 0 ;
+1 x709 -1 x38 -1 x46 >= -1 ;
-1 x697 +1 x37 >= 0 ;
-1 x697 +1 x47 >= 0 ;
+1 x697 -1 x37 -1 x47 >= -1 ;
-1 x685 +1 x36 >= 0 ;
-1 x685 +1 x48 >= 0 ;
+1 x685 -1 x36 -1 x48 >= -1 ;
-1 x673 +1 x35 >= 0 ;
-1 x673 +1 x49 >= 0 ;
+1 x673 -1 x35 -1 x49 >= -1 ;
-1 x661 +1 x34 >= 0 ;
-1 x661 +1 x50 >= 0 ;
+1 x661 -1 x34 -1 x50 >= -1 ;
-1 x649 +1 x33 >= 0 ;
-1 x649 +1 x51 >= 0 ;
+1 x649 -1 x33 -1 x51 >= -1 ;
-1 x637 +1 x32 >= 0 ;
-1 x637 +1 x52 >= 0 ;
+1 x637 -1 x32 -1 x52 >= -1 ;
-1 x215 +1 x26 >= 0 ;
-1 x215 +1 x46 >= 0 ;
+1 x215 -1 x26 -1 x46 >= -1 ;
-1 x203 +1 x25 >= 0 ;
-1 x203 +1 x47 >= 0 ;
+1 x203 -1 x25 -1 x47 >= -1 ;
-1 x191 +1 x24 >= 0 ;
-1 x191 +1 x48 >= 0 ;
+1 x191 -1 x24 -1 x48 >= -1 ;
-1 x179 +1 x23 >= 0 ;
-1 x179 +1 x49 >= 0 ;
+1 x179 -1 x23 -1 x49 >= -1 ;
-1 x167 +1 x22 >= 0 ;
-1 x167 +1 x50 >= 0 ;
+1 x167 -1 x22 -1 x50 >= -1 ;
-1 x155 +1 x21 >= 0 ;
-1 x155 +1 x51 >= 0 ;
+1 x155 -1 x21 -1 x51 >= -1 ;
-1 x143 +1 x20 >= 0 ;
-1 x143 +1 x52 >= 0 ;
+1 x143 -1 x20 -1 x52 >= -1 ;
-1 x722 +1 x39 >= 0 ;
-1 x722 +1 x46 >= 0 ;
+1 x722 -1 x39 -1 x46 >= -1 ;
-1 x710 +1 x38 >= 0 ;
-1 x710 +1 x47 >= 0 ;
+1 x710 -1 x38 -1 x47 >= -1 ;
-1 x698 +1 x37 >= 0 ;
-1 x698 +1 x48 >= 0 ;
+1 x698 -1 x37 -1 x48 >= -1 ;
-1 x686 +1 x36 >= 0 ;
-1 x686 +1 x49 >= 0 ;
+1 x686 -1 x36 -1 x49 >= -1 ;
-1 x674 +1 x35 >= 0 ;
-1 x674 +1 x50 >= 0 ;
+1 x674 -1 x35 -1 x50 >= -1 ;
-1 x662 +1 x34 >= 0 ;
-1 x662 +1 x51 >= 0 ;
+1 x662 -1 x34 -1 x51 >= -1 ;
-1 x650 +1 x33 >= 0 ;
-1 x650 +1 x52 >= 0 ;
+1 x650 -1 x33 -1 x52 >= -1 ;
-1 x216 +1 x26 >= 0 ;
-1 x216 +1 x47 >= 0 ;
+1 x216 -1 x26 -1 x47 >= -1 ;
-1 x204 +1 x25 >= 0 ;
-1 x204 +1 x48 >= 0 ;
+1 x204 -1 x25 -1 x48 >= -1 ;
-1 x192 +1 x24 >= 0 ;
-1 x192 +1 x49 >= 0 ;
+1 x192 -1 x24 -1 x49 >= -1 ;
-1 x180 +1 x23 >= 0 ;
-1 x180 +1 x50 >= 0 ;
+1 x180 -1 x23 -1 x50 >= -1 ;
-1 x168 +1 x22 >= 0 ;
-1 x168 +1 x51 >= 0 ;
+1 x168 -1 x22 -1 x51 >= -1 ;
-1 x156 +1 x21 >= 0 ;
-1 x156 +1 x52 >= 0 ;
+1 x156 -1 x21 -1 x52 >= -1 ;
-1 x723 +1 x39 >= 0 ;
-1 x723 +1 x47 >= 0 ;
+1 x723 -1 x39 -1 x47 >= -1 ;
-1 x711 +1 x38 >= 0 ;
-1 x711 +1 x48 >= 0 ;
+1 x711 -1 x38 -1 x48 >= -1 ;
-1 x699 +1 x37 >= 0 ;
-1 x699 +1 x49 >= 0 ;
+1 x699 -1 x37 -1 x49 >= -1 ;
-1 x687 +1 x36 >= 0 ;
-1 x687 +1 x50 >= 0 ;
+1 x687 -1 x36 -1 x50 >= -1 ;
-1 x675 +1 x35 >= 0 ;
-1 x675 +1 x51 >= 0 ;
+1 x675 -1 x35 -1 x51 >= -1 ;
-1 x663 +1 x34 >= 0 ;
-1 x663 +1 x52 >= 0 ;
+1 x663 -1 x34 -1 x52 >= -1 ;
-1 x217 +1 x26 >= 0 ;
-1 x217 +1 x48 >= 0 ;
+1 x217 -1 x26 -1 x48 >= -1 ;
-1 x205 +1 x25 >= 0 ;
-1 x205 +1 x49 >= 0 ;
+1 x205 -1 x25 -1 x49 >= -1 ;
-1 x193 +1 x24 >= 0 ;
-1 x193 +1 x50 >= 0 ;
+1 x193 -1 x24 -1 x50 >= -1 ;
-1 x181 +1 x23 >= 0 ;
-1 x181 +1 x51 >= 0 ;
+1 x181 -1 x23 -1 x51 >= -1 ;
-1 x169 +1 x22 >= 0 ;
-1 x169 +1 x52 >= 0 ;
+1 x169 -1 x22 -1 x52 >= -1 ;
-1 x724 +1 x39 >= 0 ;
-1 x724 +1 x48 >= 0 ;
+1 x724 -1 x39 -1 x48 >= -1 ;
-1 x712 +1 x38 >= 0 ;
-1 x712 +1 x49 >= 0 ;
+1 x712 -1 x38 -1 x49 >= -1 ;
-1 x700 +1 x37 >= 0 ;
-1 x700 +1 x50 >= 0 ;
+1 x700 -1 x37 -1 x50 >= -1 ;
-1 x688 +1 x36 >= 0 ;
-1 x688 +1 x51 >= 0 ;
+1 x688 -1 x36 -1 x51 >= -1 ;
-1 x676 +1 x35 >= 0 ;
-1 x676 +1 x52 >= 0 ;
+1 x676 -1 x35 -1 x52 >= -1 ;
-1 x218 +1 x26 >= 0 ;
-1 x218 +1 x49 >= 0 ;
+1 x218 -1 x26 -1 x49 >= -1 ;
-1 x206 +1 x25 >= 0 ;
-1 x206 +1 x50 >= 0 ;
+1 x206 -1 x25 -1 x50 >= -1 ;
-1 x194 +1 x24 >= 0 ;
-1 x194 +1 x51 >= 0 ;
+1 x194 -1 x24 -1 x51 >= -1 ;
-1 x182 +1 x23 >= 0 ;
-1 x182 +1 x52 >= 0 ;
+1 x182 -1 x23 -1 x52 >= -1 ;
-1 x725 +1 x39 >= 0 ;
-1 x725 +1 x49 >= 0 ;
+1 x725 -1 x39 -1 x49 >= -1 ;
-1 x713 +1 x38 >= 0 ;
-1 x713 +1 x50 >= 0 ;
+1 x713 -1 x38 -1 x50 >= -1 ;
-1 x701 +1 x37 >= 0 ;
-1 x701 +1 x51 >= 0 ;
+1 x701 -1 x37 -1 x51 >= -1 ;
-1 x689 +1 x36 >= 0 ;
-1 x689 +1 x52 >= 0 ;
+1 x689 -1 x36 -1 x52 >= -1 ;
-1 x219 +1 x26 >= 0 ;
-1 x219 +1 x50 >= 0 ;
+1 x219 -1 x26 -1 x50 >= -1 ;
-1 x207 +1 x25 >= 0 ;
-1 x207 +1 x51 >= 0 ;
+1 x207 -1 x25 -1 x51 >= -1 ;
-1 x195 +1 x24 >= 0 ;
-1 x195 +1 x52 >= 0 ;
+1 x195 -1 x24 -1 x52 >= -1 ;
-1 x726 +1 x39 >= 0 ;
-1 x726 +1 x50 >= 0 ;
+1 x726 -1 x39 -1 x50 >= -1 ;
-1 x714 +1 x38 >= 0 ;
-1 x714 +1 x51 >= 0 ;
+1 x714 -1 x38 -1 x51 >= -1 ;
-1 x702 +1 x37 >= 0 ;
-1 x702 +1 x52 >= 0 ;
+1 x702 -1 x37 -1 x52 >= -1 ;
-1 x220 +1 x26 >= 0 ;
-1 x220 +1 x51 >= 0 ;
+1 x220 -1 x26 -1 x51 >= -1 ;
-1 x208 +1 x25 >= 0 ;
-1 x208 +1 x52 >= 0 ;
+1 x208 -1 x25 -1 x52 >= -1 ;
-1 x727 +1 x39 >= 0 ;
-1 x727 +1 x51 >= 0 ;
+1 x727 -1 x39 -1 x51 >= -1 ;
-1 x715 +1 x38 >= 0 ;
-1 x715 +1 x52 >= 0 ;
+1 x715 -1 x38 -1 x52 >= -1 ;
-1 x221 +1 x26 >= 0 ;
-1 x221 +1 x52 >= 0 ;
+1 x221 -1 x26 -1 x52 >= -1 ;
-1 x728 +1 x39 >= 0 ;
-1 x728 +1 x52 >= 0 ;
+1 x728 -1 x39 -1 x52 >= -1 ;
